70 170896
22 38 21 23 12 19 7 36 3 67 31 14 64 50 1 51 6 4 37 11 34 24 27 49 62 65 63 15 20 40 58 45 57 28 54 60 39 56 48 42 68 41 59 5 46 53 47 43 55 61 10 30 2 70 18 44 66 9 13 25 69 8 17 16 35 29 26 33 52 32 
